100 10
34 93
20 72
23 50
59 61
35 87
65 60
29 59
78 20
35 47
92 1
37 47
13 95
69 36
2 78
26 55
37 70
98 14
24 84
85 1
19 98
61 33
24 86
28 74
21 73
39 91
17 56
100 8
98 1
33 77
9 100
19 57
59 38
65 34
75 24
52 37
15 62
34 46
14 91
27 92
45 70
42 86
83 12
95 1
12 88
76 32
10 95
7 73
83 43
77 44
66 36
55 66
73 37
89 1
49 57
12 68
98 15
99 26
48 80
87 11
46 82
91 2
15 79
12 100
37 40
35 53
55 73
73 1
46 67
67 8
24 93
50 36
94 1
42 44
85 21
57 50
38 63
4 100
39 36
91 1
2 100
96 1
55 58
39 75
37 70
9 100
9 73
29 49
80 35
8 100
58 59
56 24
1 100
50 41
72 1
63 55
40 48
33 51
54 31
87 1
48 54
608 721
456 551
436 535
361 410
627 724
401 467
413 488
567 652
567 654
588 717
